p cnf 48 134
a 17 46 0
e 1 2 3 4 5 6 7 8 9 10 11 12 13 14 15 16 18 19 20 21 22 23 24 25 26 27 28 29 30 31 32 33 34 35 36 37 38 39 40 41 42 43 44 45 47 48 0
3 -1 0
3 -2 0
1 2 -3 0
-4 5 0
4 5 0
6 3 0
6 5 0
-3 -5 -6 0
-6 2 -7 0
6 -2 -7 0
-6 -2 7 0
6 2 7 0
9 -4 0
9 -1 0
4 1 -9 0
-10 8 0
-10 9 0
-8 -9 10 0
-10 11 0
10 11 0
-12 7 0
-12 -11 0
-7 11 12 0
13 -14 -15 0
-13 14 -15 0
13 14 15 0
-13 -14 15 0
17 15 0
17 -16 0
-15 16 -17 0
-18 -4 0
-18 -1 0
4 1 18 0
-19 18 0
-19 14 0
-18 -14 19 0
-20 19 0
-20 -2 0
-19 2 20 0
-21 -17 0
-21 20 0
17 -20 21 0
23 -6 0
23 22 0
6 -22 -23 0
-24 -6 0
-24 -23 0
6 23 24 0
-18 5 -25 0
18 -5 -25 0
-18 -5 25 0
18 5 25 0
26 25 0
26 25 0
-25 -26 0
24 -26 -27 0
-24 26 -27 0
24 26 27 0
-24 -26 27 0
-28 21 0
-28 27 0
-21 -27 28 0
29 -8 0
29 -15 0
8 15 -29 0
28 -29 -30 0
-28 29 -30 0
28 29 30 0
-28 -29 30 0
-31 12 0
-31 -30 0
-12 30 31 0
33 32 0
33 -1 0
-32 1 -33 0
-34 16 0
-34 33 0
-16 -33 34 0
8 34 -35 0
-8 -34 -35 0
8 -34 35 0
-8 34 35 0
36 33 0
36 -19 0
-33 19 -36 0
-37 35 0
-37 36 0
-35 -36 37 0
38 -16 0
38 19 0
16 -19 -38 0
37 38 -39 0
-37 -38 -39 0
37 -38 39 0
-37 38 39 0
40 31 0
40 -39 0
-31 39 -40 0
42 41 0
42 -17 0
-41 17 -42 0
-43 -19 0
-43 -33 0
19 33 43 0
34 -43 -44 0
-34 43 -44 0
34 43 44 0
-34 -43 44 0
-33 -8 -45 0
33 8 -45 0
-33 8 45 0
33 -8 45 0
-46 44 0
-46 45 0
-44 -45 46 0
-47 -42 0
-47 46 0
42 -46 47 0
48 40 0
48 47 0
-40 -47 -48 0
-1 -29 19 -28 34 24 47 0
-33 32 31 -40 41 0
-21 28 14 29 -7 42 0
-1 17 -28 2 -6 0
-2 -36 40 -16 -38 0
24 31 15 2 -4 0
7 12 -4 0
26 -6 3 -28 8 5 -1 0
44 -48 -1 -22 3 -11 0
-13 16 25 -23 -42 -20 0
21 39 30 -27 -1 -46 0
-22 -47 -28 3 26 0
48 0
